endtime = 20;
SERVICE = anon_enum(40);
start =     [ i | i in 0..19 ] ++ [i | i in 0..19];
end   =     [ i | i in 1..20 ] ++ [i | i in 1..20];
STYPE = { All };
stype =  [ All | i in 1..40 ]; 

TRUCK = { DD, T1,  T2, T3, T4  };
dtruck = DD;
ttype = [ DUMMY, SML, SML, MED, LRG ];
maxsty = [1,2,3,0];

maxmaint = 8;
maintdur = [0,1,2,3];
maxsep = [ 0,1,3,0 ];

minwork = 20;
minservice = 70;

majorwork = 10;
prework = [ 0, 0, 0, 0, 0 ];

